NAME : data_7_1_tsptw.tsptw
TYPE : TSPTW
DIMENSION : 8
EDGE_WEIGHT_TYPE : EXPLICIT
EDGE_WEIGHT_FORMAT : FULL_MATRIX
EDGE_WEIGHT_SECTION
0 3131 3174 3243 2924 3159 2520 2323
2979 0 773 793 617 563 866 1083
2912 540 0 494 768 714 1017 1181
2850 922 470 0 753 987 899 1063
2781 368 792 744 0 234 774 990
2800 690 610 510 646 0 792 956
2254 739 1118 1018 422 657 0 486
2178 1005 1282 1182 671 905 267 0
TIME_WINDOW_SECTION
1 0 600000
2 12600 18000
3 1800 12600
4 0 5400
5 0 5400
6 12600 23400
7 9000 14400
8 0 10800
DEPOT_SECTION
1
-1
EOF